NAME : XML100_1131_06
COMMENT : Generated by Uchoa, Queiroga, and Vidal (2021)
TYPE : CVRP
DIMENSION : 101
EDGE_WEIGHT_TYPE : EUC_2D
CAPACITY : 32
NODE_COORD_SECTION
1    935  402 
2    228  636 
3    248  477 
4    97   712 
5    563  777 
6    630  247 
7    196  907 
8    529  783 
9    799  988 
10   69   304 
11   443  911 
12   884  638 
13   722  625 
14   568  772 
15   480  645 
16   391  209 
17   340  987 
18   492  750 
19   860  520 
20   773  290 
21   147  886 
22   227  573 
23   634  824 
24   995  738 
25   453  167 
26   308  39  
27   470  907 
28   490  805 
29   224  181 
30   353  397 
31   450  717 
32   180  937 
33   198  912 
34   150  405 
35   437  307 
36   759  381 
37   396  568 
38   595  984 
39   212  775 
40   0    960 
41   18   906 
42   306  439 
43   64   507 
44   775  26  
45   195  951 
46   644  913 
47   982  837 
48   100  150 
49   796  973 
50   370  707 
51   390  616 
52   934  989 
53   556  172 
54   808  245 
55   748  742 
56   129  616 
57   267  270 
58   675  669 
59   120  85  
60   89   796 
61   634  767 
62   266  356 
63   979  952 
64   181  850 
65   873  525 
66   358  10  
67   601  901 
68   537  716 
69   337  885 
70   939  186 
71   24   993 
72   151  365 
73   585  409 
74   860  484 
75   476  732 
76   746  277 
77   200  342 
78   552  571 
79   612  702 
80   238  671 
81   985  813 
82   668  191 
83   371  809 
84   868  553 
85   16   617 
86   100  16  
87   234  257 
88   366  99  
89   928  630 
90   854  26  
91   391  402 
92   514  548 
93   388  29  
94   447  615 
95   953  164 
96   902  934 
97   57   914 
98   380  873 
99   781  848 
100  573  54  
101  635  207 
DEMAND_SECTION
1    0   
2    10  
3    8   
4    6   
5    8   
6    7   
7    9   
8    6   
9    6   
10   5   
11   5   
12   9   
13   9   
14   7   
15   6   
16   10  
17   5   
18   7   
19   10  
20   5   
21   7   
22   5   
23   9   
24   5   
25   8   
26   10  
27   6   
28   9   
29   8   
30   9   
31   5   
32   5   
33   5   
34   5   
35   9   
36   7   
37   5   
38   8   
39   6   
40   8   
41   5   
42   5   
43   10  
44   5   
45   6   
46   6   
47   6   
48   6   
49   5   
50   10  
51   6   
52   8   
53   10  
54   10  
55   9   
56   8   
57   5   
58   5   
59   9   
60   10  
61   10  
62   7   
63   9   
64   6   
65   5   
66   7   
67   6   
68   9   
69   9   
70   9   
71   10  
72   6   
73   9   
74   10  
75   7   
76   7   
77   10  
78   6   
79   5   
80   6   
81   7   
82   10  
83   9   
84   8   
85   8   
86   10  
87   6   
88   9   
89   5   
90   7   
91   8   
92   6   
93   7   
94   6   
95   7   
96   7   
97   8   
98   6   
99   10  
100  9   
101  7   
DEPOT_SECTION
1
-1
EOF
